JulietBench/Juliet_Based_Patch_Bench/qemu/CWE-190-Integer-Overflow-or-Wraparound/CVE_2014_0143_6a83f8b5bec6f59e56cc49bd49e4c3f8f805d56f/cve1/Resultqcow2_snapshot_load_tmp_SnippetNEQ.smt2
; benchmark generated from python API
(set-info :status unknown)
(declare-fun rdi () (_ BitVec 64))
(declare-fun R () (_ BitVec 32))
(assert
 (let ((?x28 ((_ extract 28 0) rdi)))
 (let ((?x29 (concat ?x28 (_ bv0 3))))
 (let (($x67 (= R ?x29)))
 (let ((?x6 ((_ extract 31 0) rdi)))
 (let (($x26 (bvsge (_ bv33554432 32) ?x6)))
 (let (($x60 (and $x26 $x67)))
 (let (($x71 (= (_ bv4294967269 32) R)))
 (let (($x56 (bvslt (_ bv33554432 32) ?x6)))
 (let (($x72 (and $x56 $x71)))
 (let (($x69 (or $x72 $x60)))
 (let (($x75 (not $x69)))
 (let (($x74 (and (distinct R ?x29) true)))
 (let (($x76 (and $x74 $x75)))
 (let (($x73 (and $x67 $x69)))
 (let (($x77 (or $x73 $x76)))
 (not $x77)))))))))))))))))
(check-sat)
